
c--------------------------------------------------------------
c	Ferhat Erata
c	CPSC 454/554
c	Sun Dec  8 2019	00:27:19
c--------------------------------------------------------------
c 66 176
2147483647
c 43 44 1 
c -43 -44 1 
c 43 -44 -1 
c -43 44 -1 
c 1 45 2 
c -1 -45 2 
c 1 -45 -2 
c -1 45 -2 
c 2 46 3 
c -2 -46 3 
c 2 -46 -3 
c -2 46 -3 
c 3 47 4 
c -3 -47 4 
c 3 -47 -4 
c -3 47 -4 
c 4 48 5 
c -4 -48 5 
c 4 -48 -5 
c -4 48 -5 
c 5 49 6 
c -5 -49 6 
c 5 -49 -6 
c -5 49 -6 
c 6 50 7 
c -6 -50 7 
c 6 -50 -7 
c -6 50 -7 
c 7 51 8 
c -7 -51 8 
c 7 -51 -8 
c -7 51 -8 
c 8 52 9 
c -8 -52 9 
c 8 -52 -9 
c -8 52 -9 
c 9 53 10 
c -9 -53 10 
c 9 -53 -10 
c -9 53 -10 
c 10 54 11 
c -10 -54 11 
c 10 -54 -11 
c -10 54 -11 
c 11 55 12 
c -11 -55 12 
c 11 -55 -12 
c -11 55 -12 
c 12 56 13 
c -12 -56 13 
c 12 -56 -13 
c -12 56 -13 
c 13 57 14 
c -13 -57 14 
c 13 -57 -14 
c -13 57 -14 
c 14 58 15 
c -14 -58 15 
c 14 -58 -15 
c -14 58 -15 
c 15 59 16 
c -15 -59 16 
c 15 -59 -16 
c -15 59 -16 
c 16 60 17 
c -16 -60 17 
c 16 -60 -17 
c -16 60 -17 
c 17 61 18 
c -17 -61 18 
c 17 -61 -18 
c -17 61 -18 
c 18 62 19 
c -18 -62 19 
c 18 -62 -19 
c -18 62 -19 
c 19 63 20 
c -19 -63 20 
c 19 -63 -20 
c -19 63 -20 
c 20 64 21 
c -20 -64 21 
c 20 -64 -21 
c -20 64 -21 
c 21 65 66 
c -21 -65 66 
c 21 -65 -66 
c -21 65 -66 
c 22 65 66 
c -22 -65 66 
c 22 -65 -66 
c -22 65 -66 
c 23 64 22 
c -23 -64 22 
c 23 -64 -22 
c -23 64 -22 
c 24 63 23 
c -24 -63 23 
c 24 -63 -23 
c -24 63 -23 
c 25 62 24 
c -25 -62 24 
c 25 -62 -24 
c -25 62 -24 
c 26 61 25 
c -26 -61 25 
c 26 -61 -25 
c -26 61 -25 
c 27 60 26 
c -27 -60 26 
c 27 -60 -26 
c -27 60 -26 
c 28 59 27 
c -28 -59 27 
c 28 -59 -27 
c -28 59 -27 
c 29 58 28 
c -29 -58 28 
c 29 -58 -28 
c -29 58 -28 
c 30 57 29 
c -30 -57 29 
c 30 -57 -29 
c -30 57 -29 
c 31 56 30 
c -31 -56 30 
c 31 -56 -30 
c -31 56 -30 
c 32 55 31 
c -32 -55 31 
c 32 -55 -31 
c -32 55 -31 
c 33 54 32 
c -33 -54 32 
c 33 -54 -32 
c -33 54 -32 
c 34 53 33 
c -34 -53 33 
c 34 -53 -33 
c -34 53 -33 
c 35 52 34 
c -35 -52 34 
c 35 -52 -34 
c -35 52 -34 
c 36 51 35 
c -36 -51 35 
c 36 -51 -35 
c -36 51 -35 
c 37 50 36 
c -37 -50 36 
c 37 -50 -36 
c -37 50 -36 
c 38 49 37 
c -38 -49 37 
c 38 -49 -37 
c -38 49 -37 
c 39 48 38 
c -39 -48 38 
c 39 -48 -38 
c -39 48 -38 
c 40 47 39 
c -40 -47 39 
c 40 -47 -39 
c -40 47 -39 
c 41 46 40 
c -41 -46 40 
c 41 -46 -40 
c -41 46 -40 
c 42 45 41 
c -42 -45 41 
c 42 -45 -41 
c -42 45 -41 
c 43 44 -42 
c -43 -44 -42 
c 43 -44 42 
c -43 44 42 
s UNSATISFIABLE
c--------------------------------------------------------------
c statistics of ../../bench3/dubois22.cnf:
c [ mem_used: 1989, conflicts: 45, lemmas: 45 ]
c--------------------------------------------------------------
c	Normal termination.
